NAME          COPTPROB
OBJSENSE
  MIN
ROWS
 N  __OBJ___
 L  C7      
 L  C110    
 L  C141    
COLUMNS
    MARKER    'MARKER'                 'INTORG'
    x192      __OBJ___  179
    x192      C110      -1
    x313      __OBJ___  309
    x313      C7        -1
    x313      C110      -1
    x331      __OBJ___  241
    x331      C110      -1
    x331      C141      -1
    x717      __OBJ___  180
    x717      C7        -1
    x771      __OBJ___  330
    x771      C7        -1
    x771      C141      -1
    MARKER    'MARKER'                 'INTEND'
RHS
    RHS       __OBJ___  -17863
    RHS       C7        -1
    RHS       C110      -1
    RHS       C141      -1
BOUNDS
 UP BOUND     x192      1
 UP BOUND     x313      1
 UP BOUND     x331      1
 UP BOUND     x717      1
 UP BOUND     x771      1
ENDATA
